proyfinal/src/viki/013/experimentInOfficeAgust.take6.output/e03c5406-10d2-4014-a114-2e7dc8beb2b8.als.out
Reading from standard input... Use '--help' for help.
============================[ Problem Statistics ]=============================
|                                                                             |
|  Number of variables:         87638                                         |
|  Number of clauses:          161767                                         |
|  Parse time:                   0.04 s                                       |
|                                                                             |
============================[ Search Statistics ]==============================
| Conflicts |          ORIGINAL         |          LEARNT          | Progress |
|           |    Vars  Clauses Literals |    Limit  Clauses Lit/Cl |          |
===============================================================================
|       100 |   62783   106601   266335 |    39087      100      9 | 28.361 % |
|       250 |   62783   106601   266335 |    42995      250     11 | 28.361 % |
|       475 |   62783   106601   266335 |    47295      475     27 | 28.361 % |
|       812 |   62783   106601   266335 |    52024      812     27 | 28.361 % |
|      1318 |   62783   106601   266335 |    57227     1318     37 | 28.361 % |
|      2077 |   62782   106557   266245 |    62950     2075     59 | 28.362 % |
|      3216 |   62747   106489   266084 |    69245     3211     66 | 28.402 % |
|      4924 |   62747   106415   265913 |    76169     4918     69 | 28.402 % |
|      7486 |   62657   106162   265344 |    83786     6924     66 | 28.505 % |
|     11330 |   62577   105690   264234 |    92165    10761     81 | 28.596 % |
===============================================================================
restarts              : 63
conflicts             : 16261          (6947 /sec)
decisions             : 50865          (0.00 % random) (21729 /sec)
propagations          : 20738584       (8859330 /sec)
conflict literals     : 1304813        (56.88 % deleted)
Memory used           : 30.55 MB
CPU time              : 2.34088 s

UNSATISFIABLE
